% From SICStus example dominoes.pl (instance a)
r = 7;
c = 8;
high = 6;
board = array2d(1..r, 1..c, 
     [
      1,6,3,6,0,6,0,2,
      6,2,2,6,6,5,3,1,
      2,4,1,2,4,4,5,0,
      0,5,5,3,0,4,0,3,
      4,1,3,1,4,5,3,3,
      1,5,0,0,1,6,4,2,
      6,2,3,2,1,4,5,5
    ])
;
